
Gurobi 10.0.1 (linux64) logging started Sun Nov 26 16:15:03 2023

Set parameter LogFile to value "ArtificialInstance/ExperimentV2/S3T3K3/BaDo/gurobi91.txt"
Gurobi Optimizer version 10.0.1 build v10.0.1rc0 (linux64)

CPU model: AMD EPYC 7H12 64-Core Processor, instruction set [SSE2|AVX|AVX2]
Thread count: 128 physical cores, 128 logical processors, using up to 32 threads

Academic license 656792 - for non-commercial use only - registered to b.___@student.vu.nl
Optimize a model with 630 rows, 1040 columns and 3360 nonzeros
Model fingerprint: 0xfe957b7b
Variable types: 0 continuous, 1040 integer (1040 binary)
Coefficient statistics:
  Matrix range     [1e+00, 1e+00]
  Objective range  [2e+00, 2e+01]
  Bounds range     [1e+00, 1e+00]
  RHS range        [1e+00, 1e+00]
Found heuristic solution: objective 414.0370541
Presolve time: 0.00s
Presolved: 630 rows, 1040 columns, 3360 nonzeros
Variable types: 0 continuous, 1040 integer (1040 binary)

Root relaxation: objective 3.726067e+01, 574 iterations, 0.01 seconds (0.01 work units)

    Nodes    |    Current Node    |     Objective Bounds      |     Work
 Expl Unexpl |  Obj  Depth IntInf | Incumbent    BestBd   Gap | It/Node Time

     0     0   37.26067    0  112  414.03705   37.26067  91.0%     -    0s
H    0     0                     215.9546837   37.26067  82.7%     -    0s
H    0     0                     120.4473479   37.26067  69.1%     -    0s
H    0     0                      66.9148126   37.26067  44.3%     -    0s
     0     0   42.04757    0  109   66.91481   42.04757  37.2%     -    0s
H    0     0                      63.7293897   42.04757  34.0%     -    0s
     0     0   44.59145    0  108   63.72939   44.59145  30.0%     -    0s
H    0     0                      63.1405928   44.59145  29.4%     -    0s
H    0     0                      59.3538987   44.63630  24.8%     -    0s
H    0     0                      55.6966279   47.63536  14.5%     -    0s
     0     0   47.63536    0  139   55.69663   47.63536  14.5%     -    0s
H    0     0                      52.5796074   47.63536  9.40%     -    0s
     0     0   47.74673    0  149   52.57961   47.74673  9.19%     -    0s
     0     0   48.58141    0  181   52.57961   48.58141  7.60%     -    0s
     0     0   48.58141    0  111   52.57961   48.58141  7.60%     -    0s
     0     0   48.67696    0  180   52.57961   48.67696  7.42%     -    0s
     0     0   49.98516    0  171   52.57961   49.98516  4.93%     -    0s
     0     0   50.04215    0  175   52.57961   50.04215  4.83%     -    0s
     0     0   50.04639    0  179   52.57961   50.04639  4.82%     -    0s
H    0     0                      50.9351913   50.04639  1.74%     -    0s
     0     0   50.41401    0  166   50.93519   50.41401  1.02%     -    0s
     0     0   50.54454    0  167   50.93519   50.54454  0.77%     -    0s
     0     0   50.82651    0  164   50.93519   50.82651  0.21%     -    0s
     0     0   50.90044    0  161   50.93519   50.90044  0.07%     -    0s
     0     0     cutoff    0        50.93519   50.93519  0.00%     -    0s

Cutting planes:
  Gomory: 6
  Zero half: 30
  RLT: 2

Explored 1 nodes (2683 simplex iterations) in 0.30 seconds (0.11 work units)
Thread count was 32 (of 128 available processors)

Solution count 10: 50.9352 52.5796 55.6966 ... 414.037

Optimal solution found (tolerance 1.00e-04)
Best objective 5.093519125236e+01, best bound 5.093519125236e+01, gap 0.0000%
